50 4
31 44 80 58 42 43 58 70 96 90 79 45 58 42 92 52 81 70 29 36 68 70 54 62 42 66 24 13 62 10 90 11 89 69 36 73 22 43 30 99 36 22 33 76 96 79 18 39 30 27
88 33 63 39 26 25 28 39 86 94 51 48 23 28 88 15 95 93 10 99 45 84 82 86 94 43 14 12 72 69 30 45 88 50 86 17 52 88 83 83 95 13 37 22 42 89 77 95 13 33
48 90 96 83 72 86 47 39 68 86 71 13 23 74 89 87 13 98 92 99 85 75 36 44 30 36 81 75 61 78 61 100 90 85 81 95 25 24 100 64 86 15 46 76 32 38 27 43 21 63
67 53 70 80 87 27 51 41 55 34 85 25 70 31 16 49 40 27 23 77 48 72 89 30 80 44 28 96 94 31 93 59 11 24 44 59 16 45 66 77 37 54 76 54 20 43 40 64 87 21
